<?xml version="1.0" encoding="utf-8"?><CPLEXSolution version="1.2"><header writeLevel="1" MIPNodes="283843" solutionTypeValue="3" solutionMethodString="mip" solutionIndex="-1" objectiveValue="773433.99999977998" dualFeasible="0" solutionName="incumbent" solutionTypeString="primal" MIPIterations="9585734" primalFeasible="1" solutionStatusString="aborted" problemName="timtab1.mps.gz" solutionStatusValue="113"></header><quality maxPrimalInfeas="4.9737991503207013e-14" maxIntInfeas="6.6613381477509392e-16" epInt="1.0000000000000001e-05" maxX="54" epRHS="9.9999999999999995e-07" maxSlack="4.9737991503207013e-14"></quality><linearConstraints><constraint index="0" name="c1" slack="0"/><constraint index="1" name="c2" slack="0"/><constraint index="2" name="c3" slack="0"/><constraint index="3" name="c4" slack="0"/><constraint index="4" name="c5" slack="-3.5527136788005009e-15"/><constraint index="5" name="c6" slack="1.4210854715202004e-14"/><constraint index="6" name="c7" slack="0"/><constraint index="7" name="c8" slack="0"/><constraint index="8" name="c9" slack="0"/><constraint index="9" name="c10" slack="1.7763568394002505e-14"/><constraint index="10" name="c11" slack="0"/><constraint index="11" name="c12" slack="0"/><constraint index="12" name="c13" slack="0"/><constraint index="13" name="c14" slack="0"/><constraint index="14" name="c15" slack="7.1054273576010019e-15"/><constraint index="15" name="c16" slack="4.9737991503207013e-14"/><constraint index="16" name="c17" slack="0"/><constraint index="17" name="c18" slack="-3.5527136788005009e-15"/><constraint index="18" name="c19" slack="0"/><constraint index="19" name="c20" slack="3.5527136788005009e-15"/><constraint index="20" name="c21" slack="0"/><constraint index="21" name="c22" slack="0"/><constraint index="22" name="c23" slack="0"/><constraint index="23" name="c24" slack="0"/><constraint index="24" name="c25" slack="0"/><constraint index="25" name="c26" slack="-2.8421709430404007e-14"/><constraint index="26" name="c27" slack="0"/><constraint index="27" name="c28" slack="0"/><constraint index="28" name="c29" slack="0"/><constraint index="29" name="c30" slack="0"/><constraint index="30" name="c31" slack="0"/><constraint index="31" name="c32" slack="-2.4868986321199496e-14"/><constraint index="32" name="c33" slack="3.5527136788005009e-15"/><constraint index="33" name="c34" slack="0"/><constraint index="34" name="c35" slack="0"/><constraint index="35" name="c36" slack="0"/><constraint index="36" name="c37" slack="-3.5527136788005009e-15"/><constraint index="37" name="c38" slack="0"/><constraint index="38" name="c39" slack="-3.5527136788005009e-15"/><constraint index="39" name="c40" slack="-3.5527136788005009e-15"/><constraint index="40" name="c41" slack="3.5527136788005009e-15"/><constraint index="41" name="c42" slack="0"/><constraint index="42" name="c43" slack="0"/><constraint index="43" name="c44" slack="0"/><constraint index="44" name="c45" slack="0"/><constraint index="45" name="c46" slack="0"/><constraint index="46" name="c47" slack="0"/><constraint index="47" name="c48" slack="0"/><constraint index="48" name="c49" slack="0"/><constraint index="49" name="c50" slack="0"/><constraint index="50" name="c51" slack="0"/><constraint index="51" name="c52" slack="0"/><constraint index="52" name="c53" slack="0"/><constraint index="53" name="c54" slack="0"/><constraint index="54" name="c55" slack="0"/><constraint index="55" name="c56" slack="0"/><constraint index="56" name="c57" slack="0"/><constraint index="57" name="c58" slack="0"/><constraint index="58" name="c59" slack="0"/><constraint index="59" name="c60" slack="0"/><constraint index="60" name="c61" slack="0"/><constraint index="61" name="c62" slack="0"/><constraint index="62" name="c63" slack="0"/><constraint index="63" name="c64" slack="0"/><constraint index="64" name="c65" slack="0"/><constraint index="65" name="c66" slack="0"/><constraint index="66" name="c67" slack="0"/><constraint index="67" name="c68" slack="0"/><constraint index="68" name="c69" slack="0"/><constraint index="69" name="c70" slack="0"/><constraint index="70" name="c71" slack="0"/><constraint index="71" name="c72" slack="0"/><constraint index="72" name="c73" slack="0"/><constraint index="73" name="c74" slack="0"/><constraint index="74" name="c75" slack="0"/><constraint index="75" name="c76" slack="0"/><constraint index="76" name="c77" slack="0"/><constraint index="77" name="c78" slack="0"/><constraint index="78" name="c79" slack="0"/><constraint index="79" name="c80" slack="0"/><constraint index="80" name="c81" slack="0"/><constraint index="81" name="c82" slack="3.5527136788005009e-15"/><constraint index="82" name="c83" slack="0"/><constraint index="83" name="c84" slack="0"/><constraint index="84" name="c85" slack="0"/><constraint index="85" name="c86" slack="0"/><constraint index="86" name="c87" slack="0"/><constraint index="87" name="c88" slack="0"/><constraint index="88" name="c89" slack="0"/><constraint index="89" name="c90" slack="0"/><constraint index="90" name="c91" slack="0"/><constraint index="91" name="c92" slack="0"/><constraint index="92" name="c93" slack="0"/><constraint index="93" name="c94" slack="0"/><constraint index="94" name="c95" slack="0"/><constraint index="95" name="c96" slack="0"/><constraint index="96" name="c97" slack="0"/><constraint index="97" name="c98" slack="0"/><constraint index="98" name="c99" slack="0"/><constraint index="99" name="c100" slack="0"/><constraint index="100" name="c101" slack="3.5527136788005009e-15"/><constraint index="101" name="c102" slack="0"/><constraint index="102" name="c103" slack="0"/><constraint index="103" name="c104" slack="0"/><constraint index="104" name="c105" slack="3.5527136788005009e-15"/><constraint index="105" name="c106" slack="0"/><constraint index="106" name="c107" slack="3.5527136788005009e-15"/><constraint index="107" name="c108" slack="0"/><constraint index="108" name="c109" slack="0"/><constraint index="109" name="c110" slack="0"/><constraint index="110" name="c111" slack="0"/><constraint index="111" name="c112" slack="0"/><constraint index="112" name="c113" slack="0"/><constraint index="113" name="c114" slack="0"/><constraint index="114" name="c115" slack="0"/><constraint index="115" name="c116" slack="0"/><constraint index="116" name="c117" slack="0"/><constraint index="117" name="c118" slack="0"/><constraint index="118" name="c119" slack="0"/><constraint index="119" name="c120" slack="0"/><constraint index="120" name="c121" slack="-1.4210854715202004e-14"/><constraint index="121" name="c122" slack="0"/><constraint index="122" name="c123" slack="0"/><constraint index="123" name="c124" slack="-1.4210854715202004e-14"/><constraint index="124" name="c125" slack="1.4210854715202004e-14"/><constraint index="125" name="c126" slack="0"/><constraint index="126" name="c127" slack="0"/><constraint index="127" name="c128" slack="0"/><constraint index="128" name="c129" slack="0"/><constraint index="129" name="c130" slack="0"/><constraint index="130" name="c131" slack="0"/><constraint index="131" name="c132" slack="0"/><constraint index="132" name="c133" slack="0"/><constraint index="133" name="c134" slack="0"/><constraint index="134" name="c135" slack="0"/><constraint index="135" name="c136" slack="0"/><constraint index="136" name="c137" slack="0"/><constraint index="137" name="c138" slack="0"/><constraint index="138" name="c139" slack="0"/><constraint index="139" name="c140" slack="0"/><constraint index="140" name="c141" slack="2.2204460492503131e-16"/><constraint index="141" name="c142" slack="0"/><constraint index="142" name="c143" slack="0"/><constraint index="143" name="c144" slack="0"/><constraint index="144" name="c145" slack="0"/><constraint index="145" name="c146" slack="0"/><constraint index="146" name="c147" slack="0"/><constraint index="147" name="c148" slack="0"/><constraint index="148" name="c149" slack="0"/><constraint index="149" name="c150" slack="0"/><constraint index="150" name="c151" slack="0"/><constraint index="151" name="c152" slack="0"/><constraint index="152" name="c153" slack="0"/><constraint index="153" name="c154" slack="0"/><constraint index="154" name="c155" slack="0"/><constraint index="155" name="c156" slack="0"/><constraint index="156" name="c157" slack="0"/><constraint index="157" name="c158" slack="0"/><constraint index="158" name="c159" slack="0"/><constraint index="159" name="c160" slack="0"/><constraint index="160" name="c161" slack="0"/><constraint index="161" name="c162" slack="0"/><constraint index="162" name="c163" slack="0"/><constraint index="163" name="c164" slack="0"/><constraint index="164" name="c165" slack="0"/><constraint index="165" name="c166" slack="0"/><constraint index="166" name="c167" slack="0"/><constraint index="167" name="c168" slack="-1.7763568394002505e-15"/><constraint index="168" name="c169" slack="0"/><constraint index="169" name="c170" slack="0"/><constraint index="170" name="c171" slack="0"/></linearConstraints><variables><variable index="0" name="x1" value="0"/><variable index="1" name="x2" value="53.999999999999993"/><variable index="2" name="x3" value="52.999999999999993"/><variable index="3" name="x4" value="20.000000000000011"/><variable index="4" name="x5" value="0"/><variable index="5" name="x6" value="50.000000000000014"/><variable index="6" name="x7" value="9.0000000000000213"/><variable index="7" name="x8" value="0"/><variable index="8" name="x9" value="43.000000000000014"/><variable index="9" name="x10" value="5.0000000000000071"/><variable index="10" name="x11" value="13.999999999999986"/><variable index="11" name="x12" value="0"/><variable index="12" name="x13" value="0"/><variable index="13" name="x14" value="14.000000000000011"/><variable index="14" name="x15" value="30.000000000000018"/><variable index="15" name="x16" value="15.000000000000014"/><variable index="16" name="x17" value="18.000000000000018"/><variable index="17" name="x18" value="0"/><variable index="18" name="x19" value="12.000000000000014"/><variable index="19" name="x20" value="42.000000000000014"/><variable index="20" name="x21" value="22"/><variable index="21" name="x22" value="2.0000000000000391"/><variable index="22" name="x23" value="31.00000000000005"/><variable index="23" name="x24" value="2.0000000000000391"/><variable index="24" name="x25" value="30.00000000000005"/><variable index="25" name="x26" value="1.0000000000000426"/><variable index="26" name="x27" value="0"/><variable index="27" name="x28" value="31.00000000000005"/><variable index="28" name="x29" value="2.0000000000000391"/><variable index="29" name="x30" value="1.0000000000000497"/><variable index="30" name="x31" value="32.000000000000043"/><variable index="31" name="x32" value="38.999999999999943"/><variable index="32" name="x33" value="2.9999999999999467"/><variable index="33" name="x34" value="31.999999999999947"/><variable index="34" name="x35" value="28.999999999999947"/><variable index="35" name="x36" value="1.9999999999999467"/><variable index="36" name="x37" value="21.999999999999961"/><variable index="37" name="x38" value="32.999999999999943"/><variable index="38" name="x39" value="31.999999999999947"/><variable index="39" name="x40" value="1.9999999999999467"/><variable index="40" name="x41" value="31.999999999999947"/><variable index="41" name="x42" value="30.999999999999947"/><variable index="42" name="x43" value="1.9999999999999467"/><variable index="43" name="x44" value="0.99999999999994671"/><variable index="44" name="x45" value="37"/><variable index="45" name="x46" value="7"/><variable index="46" name="x47" value="0"/><variable index="47" name="x48" value="31"/><variable index="48" name="x49" value="1"/><variable index="49" name="x50" value="33"/><variable index="50" name="x51" value="3"/><variable index="51" name="x52" value="1.9999999999999964"/><variable index="52" name="x53" value="31.999999999999996"/><variable index="53" name="x54" value="41"/><variable index="54" name="x55" value="11"/><variable index="55" name="x56" value="30"/><variable index="56" name="x57" value="0"/><variable index="57" name="x58" value="0"/><variable index="58" name="x59" value="0"/><variable index="59" name="x60" value="0.99999999999999645"/><variable index="60" name="x61" value="31"/><variable index="61" name="x62" value="4.9999999999999964"/><variable index="62" name="x63" value="35"/><variable index="63" name="x64" value="17.999999999999996"/><variable index="64" name="x65" value="48"/><variable index="65" name="x66" value="24"/><variable index="66" name="x67" value="5"/><variable index="67" name="x68" value="0"/><variable index="68" name="x69" value="30"/><variable index="69" name="x70" value="0"/><variable index="70" name="x71" value="0"/><variable index="71" name="x72" value="9"/><variable index="72" name="x73" value="48"/><variable index="73" name="x74" value="32"/><variable index="74" name="x75" value="12.999999999999996"/><variable index="75" name="x76" value="10"/><variable index="76" name="x77" value="42"/><variable index="77" name="x78" value="12"/><variable index="78" name="x79" value="0"/><variable index="79" name="x80" value="0"/><variable index="80" name="x81" value="5.9999999999999858"/><variable index="81" name="x82" value="21.999999999999996"/><variable index="82" name="x83" value="50"/><variable index="83" name="x84" value="35"/><variable index="84" name="x85" value="43"/><variable index="85" name="x86" value="13"/><variable index="86" name="x87" value="17"/><variable index="87" name="x88" value="0"/><variable index="88" name="x89" value="0"/><variable index="89" name="x90" value="19.999999999999993"/><variable index="90" name="x91" value="3"/><variable index="91" name="x92" value="33"/><variable index="92" name="x93" value="36"/><variable index="93" name="x94" value="3"/><variable index="94" name="x95" value="37"/><variable index="95" name="x96" value="44"/><variable index="96" name="x97" value="37"/><variable index="97" name="x98" value="2.0000000000000142"/><variable index="98" name="x99" value="52"/><variable index="99" name="x100" value="22"/><variable index="100" name="x101" value="12"/><variable index="101" name="x102" value="19.000000000000004"/><variable index="102" name="x103" value="35"/><variable index="103" name="x104" value="7"/><variable index="104" name="x105" value="10.000000000000004"/><variable index="105" name="x106" value="42"/><variable index="106" name="x107" value="0"/><variable index="107" name="x108" value="0"/><variable index="108" name="x109" value="2.0000000000000036"/><variable index="109" name="x110" value="1.0000000000000036"/><variable index="110" name="x111" value="32"/><variable index="111" name="x112" value="7.0000000000000036"/><variable index="112" name="x113" value="12.999999999999986"/><variable index="113" name="x114" value="21.999999999999996"/><variable index="114" name="x115" value="4"/><variable index="115" name="x116" value="28"/><variable index="116" name="x117" value="25"/><variable index="117" name="x118" value="0"/><variable index="118" name="x119" value="3"/><variable index="119" name="x120" value="53"/><variable index="120" name="x121" value="20"/><variable index="121" name="x122" value="52.000000000000014"/><variable index="122" name="x123" value="0"/><variable index="123" name="x124" value="11.999999999999996"/><variable index="124" name="x125" value="18.999999999999996"/><variable index="125" name="x126" value="33.000000000000014"/><variable index="126" name="x127" value="17.000000000000014"/><variable index="127" name="x128" value="24.000000000000018"/><variable index="128" name="x129" value="0"/><variable index="129" name="x130" value="0"/><variable index="130" name="x131" value="50"/><variable index="131" name="x132" value="0"/><variable index="132" name="x133" value="0"/><variable index="133" name="x134" value="0"/><variable index="134" name="x135" value="30.000000000000004"/><variable index="135" name="x136" value="29"/><variable index="136" name="x137" value="0"/><variable index="137" name="x138" value="9.9999999999999964"/><variable index="138" name="x139" value="54"/><variable index="139" name="x140" value="0"/><variable index="140" name="x141" value="0"/><variable index="141" name="x142" value="0"/><variable index="142" name="x143" value="22.000000000000004"/><variable index="143" name="x144" value="0"/><variable index="144" name="x145" value="0"/><variable index="145" name="x146" value="0"/><variable index="146" name="x147" value="49.000000000000014"/><variable index="147" name="x148" value="22.000000000000007"/><variable index="148" name="x149" value="51.000000000000014"/><variable index="149" name="x150" value="1"/><variable index="150" name="x151" value="41"/><variable index="151" name="x152" value="8.0000000000000036"/><variable index="152" name="x153" value="11"/><variable index="153" name="x154" value="0.99999999999998224"/><variable index="154" name="x155" value="15.999999999999989"/><variable index="155" name="x156" value="50.000000000000014"/><variable index="156" name="x157" value="0"/><variable index="157" name="x158" value="19.000000000000011"/><variable index="158" name="x159" value="33.000000000000014"/><variable index="159" name="x160" value="50.000000000000007"/><variable index="160" name="x161" value="0"/><variable index="161" name="x162" value="3.0000000000000142"/><variable index="162" name="x163" value="0"/><variable index="163" name="x164" value="36.000000000000014"/><variable index="164" name="x165" value="1.9999999999999858"/><variable index="165" name="x166" value="19"/><variable index="166" name="x167" value="0"/><variable index="167" name="x168" value="47.000000000000007"/><variable index="168" name="x169" value="50.000000000000014"/><variable index="169" name="x170" value="0"/><variable index="170" name="x171" value="20.000000000000014"/><variable index="171" name="x172" value="0"/><variable index="172" name="x173" value="27.999999999999996"/><variable index="173" name="x174" value="21.000000000000004"/><variable index="174" name="x175" value="32"/><variable index="175" name="x176" value="36"/><variable index="176" name="x177" value="33"/><variable index="177" name="x178" value="2"/><variable index="178" name="x179" value="0"/><variable index="179" name="x180" value="24"/><variable index="180" name="x181" value="34.999999999999993"/><variable index="181" name="x182" value="1.9999999999999996"/><variable index="182" name="x183" value="32"/><variable index="183" name="x184" value="0"/><variable index="184" name="x185" value="31.999999999999993"/><variable index="185" name="x186" value="1.9999999999999927"/><variable index="186" name="x187" value="0"/><variable index="187" name="x188" value="0"/><variable index="188" name="x189" value="29"/><variable index="189" name="x190" value="3"/><variable index="190" name="x191" value="0"/><variable index="191" name="x192" value="0"/><variable index="192" name="x193" value="1.9999999999999929"/><variable index="193" name="x194" value="0"/><variable index="194" name="x195" value="23.000000000000014"/><variable index="195" name="x196" value="0"/><variable index="196" name="x197" value="42"/><variable index="197" name="x198" value="9.0000000000000036"/><variable index="198" name="x199" value="8.9999999999999929"/><variable index="199" name="x200" value="27"/><variable index="200" name="x201" value="51"/><variable index="201" name="x202" value="35"/><variable index="202" name="x203" value="15.999999999999996"/><variable index="203" name="x204" value="21"/><variable index="204" name="x205" value="4.9999999999999964"/><variable index="205" name="x206" value="12"/><variable index="206" name="x207" value="0"/><variable index="207" name="x208" value="29.999999999999996"/><variable index="208" name="x209" value="0"/><variable index="209" name="x210" value="36"/><variable index="210" name="x211" value="6.9999999999999858"/><variable index="211" name="x212" value="3.0000000000000036"/><variable index="212" name="x213" value="0"/><variable index="213" name="x214" value="0"/><variable index="214" name="x215" value="26.000000000000014"/><variable index="215" name="x216" value="0"/><variable index="216" name="x217" value="3"/><variable index="217" name="x218" value="7.0000000000000142"/><variable index="218" name="x219" value="30"/><variable index="219" name="x220" value="0"/><variable index="220" name="x221" value="0"/><variable index="221" name="x222" value="8.0000000000000071"/><variable index="222" name="x223" value="0.99999999999999467"/><variable index="223" name="x224" value="45.999999999999993"/><variable index="224" name="x225" value="50.999999999999986"/><variable index="225" name="x226" value="0"/><variable index="226" name="x227" value="2"/><variable index="227" name="x228" value="0"/><variable index="228" name="x229" value="-0"/><variable index="229" name="x230" value="1"/><variable index="230" name="x231" value="1"/><variable index="231" name="x232" value="1.0000000000000007"/><variable index="232" name="x233" value="1"/><variable index="233" name="x234" value="0"/><variable index="234" name="x235" value="1"/><variable index="235" name="x236" value="-0"/><variable index="236" name="x237" value="1"/><variable index="237" name="x238" value="0"/><variable index="238" name="x239" value="0"/><variable index="239" name="x240" value="-0"/><variable index="240" name="x241" value="0"/><variable index="241" name="x242" value="0"/><variable index="242" name="x243" value="0"/><variable index="243" name="x244" value="1"/><variable index="244" name="x245" value="-0"/><variable index="245" name="x246" value="1"/><variable index="246" name="x247" value="1"/><variable index="247" name="x248" value="0"/><variable index="248" name="x249" value="-0"/><variable index="249" name="x250" value="-0"/><variable index="250" name="x251" value="2"/><variable index="251" name="x252" value="1.9999999999999996"/><variable index="252" name="x253" value="0"/><variable index="253" name="x254" value="0"/><variable index="254" name="x255" value="-0"/><variable index="255" name="x256" value="1"/><variable index="256" name="x257" value="1"/><variable index="257" name="x258" value="-0"/><variable index="258" name="x259" value="1"/><variable index="259" name="x260" value="0"/><variable index="260" name="x261" value="0"/><variable index="261" name="x262" value="0"/><variable index="262" name="x263" value="1"/><variable index="263" name="x264" value="0"/><variable index="264" name="x265" value="1"/><variable index="265" name="x266" value="1"/><variable index="266" name="x267" value="-0"/><variable index="267" name="x268" value="1"/><variable index="268" name="x269" value="1"/><variable index="269" name="x270" value="0"/><variable index="270" name="x271" value="1"/><variable index="271" name="x272" value="0"/><variable index="272" name="x273" value="2"/><variable index="273" name="x274" value="-0"/><variable index="274" name="x275" value="2"/><variable index="275" name="x276" value="2"/><variable index="276" name="x277" value="-0"/><variable index="277" name="x278" value="-0"/><variable index="278" name="x279" value="1"/><variable index="279" name="x280" value="1"/><variable index="280" name="x281" value="1"/><variable index="281" name="x282" value="1"/><variable index="282" name="x283" value="1"/><variable index="283" name="x284" value="1"/><variable index="284" name="x285" value="1"/><variable index="285" name="x286" value="-0"/><variable index="286" name="x287" value="1"/><variable index="287" name="x288" value="3"/><variable index="288" name="x289" value="3"/><variable index="289" name="x290" value="1"/><variable index="290" name="x291" value="1"/><variable index="291" name="x292" value="2"/><variable index="292" name="x293" value="2"/><variable index="293" name="x294" value="1"/><variable index="294" name="x295" value="2"/><variable index="295" name="x296" value="1"/><variable index="296" name="x297" value="2"/><variable index="297" name="x298" value="1"/><variable index="298" name="x299" value="1"/><variable index="299" name="x300" value="1"/><variable index="300" name="x301" value="2"/><variable index="301" name="x302" value="0"/><variable index="302" name="x303" value="0"/><variable index="303" name="x304" value="1"/><variable index="304" name="x305" value="2"/><variable index="305" name="x306" value="1"/><variable index="306" name="x307" value="-0"/><variable index="307" name="x308" value="1"/><variable index="308" name="x309" value="2"/><variable index="309" name="x310" value="1"/><variable index="310" name="x311" value="0"/><variable index="311" name="x312" value="0"/><variable index="312" name="x313" value="2"/><variable index="313" name="x314" value="-0"/><variable index="314" name="x315" value="1"/><variable index="315" name="x316" value="0"/><variable index="316" name="x317" value="1"/><variable index="317" name="x318" value="1"/><variable index="318" name="x319" value="1"/><variable index="319" name="x320" value="1"/><variable index="320" name="x321" value="-0"/><variable index="321" name="x322" value="-0"/><variable index="322" name="x323" value="1"/><variable index="323" name="x324" value="2"/><variable index="324" name="x325" value="1"/><variable index="325" name="x326" value="2"/><variable index="326" name="x327" value="-0"/><variable index="327" name="x328" value="1"/><variable index="328" name="x329" value="1"/><variable index="329" name="x330" value="1"/><variable index="330" name="x331" value="-0"/><variable index="331" name="x332" value="2"/><variable index="332" name="x333" value="0"/><variable index="333" name="x334" value="0"/><variable index="334" name="x335" value="1"/><variable index="335" name="x336" value="1"/><variable index="336" name="x337" value="2"/><variable index="337" name="x338" value="1"/><variable index="338" name="x339" value="1"/><variable index="339" name="x340" value="-0"/><variable index="340" name="x341" value="1"/><variable index="341" name="x342" value="1"/><variable index="342" name="x343" value="1"/><variable index="343" name="x344" value="1"/><variable index="344" name="x345" value="1"/><variable index="345" name="x346" value="0"/><variable index="346" name="x347" value="0.99999999999999956"/><variable index="347" name="x348" value="1"/><variable index="348" name="x349" value="2"/><variable index="349" name="x350" value="2"/><variable index="350" name="x351" value="2"/><variable index="351" name="x352" value="-0"/><variable index="352" name="x353" value="2"/><variable index="353" name="x354" value="0"/><variable index="354" name="x355" value="1"/><variable index="355" name="x356" value="1"/><variable index="356" name="x357" value="1"/><variable index="357" name="x358" value="1"/><variable index="358" name="x359" value="0"/><variable index="359" name="x360" value="1"/><variable index="360" name="x361" value="1"/><variable index="361" name="x362" value="0"/><variable index="362" name="x363" value="-0"/><variable index="363" name="x364" value="1"/><variable index="364" name="x365" value="1"/><variable index="365" name="x366" value="1"/><variable index="366" name="x367" value="0"/><variable index="367" name="x368" value="0"/><variable index="368" name="x369" value="1"/><variable index="369" name="x370" value="0"/><variable index="370" name="x371" value="1"/><variable index="371" name="x372" value="1"/><variable index="372" name="x373" value="1"/><variable index="373" name="x374" value="1"/><variable index="374" name="x375" value="2"/><variable index="375" name="x376" value="2"/><variable index="376" name="x377" value="2"/><variable index="377" name="x378" value="-0"/><variable index="378" name="x379" value="0"/><variable index="379" name="x380" value="1"/><variable index="380" name="x381" value="0"/><variable index="381" name="x382" value="1"/><variable index="382" name="x383" value="1"/><variable index="383" name="x384" value="0"/><variable index="384" name="x385" value="1"/><variable index="385" name="x386" value="1"/><variable index="386" name="x387" value="-0"/><variable index="387" name="x388" value="0"/><variable index="388" name="x389" value="-0"/><variable index="389" name="x390" value="1"/><variable index="390" name="x391" value="0"/><variable index="391" name="x392" value="2"/><variable index="392" name="x393" value="1"/><variable index="393" name="x394" value="0"/><variable index="394" name="x395" value="1"/><variable index="395" name="x396" value="2"/><variable index="396" name="x397" value="0"/></variables></CPLEXSolution>